p cnf 4389 1070
-4007 4204 0
-4204 4007 0
-4206 -4207 0
-4009 4206 0
-4010 4207 0
-4206 4009 0
-4207 4010 0
-4209 -4210 0
-4012 4209 0
-4013 4210 0
-4209 4012 0
-4210 4013 0
-4212 -4213 0
-4212 -4214 0
-4213 -4214 0
-4015 4212 0
-4016 4213 0
-4017 4214 0
-4212 4015 0
-4213 4016 0
-4214 4017 0
-4216 -4217 0
-4019 4216 0
-4020 4217 0
-4216 4019 0
-4217 4020 0
-4219 -4220 0
-4219 -4221 0
-4220 -4221 0
-4022 4219 0
-4023 4220 0
-4024 4221 0
-4219 4022 0
-4220 4023 0
-4221 4024 0
-4223 -4224 0
-4026 4223 0
-4027 4224 0
-4223 4026 0
-4224 4027 0
-4226 -4227 0
-4226 -4228 0
-4227 -4228 0
-4029 4226 0
-4030 4227 0
-4031 4228 0
-4226 4029 0
-4227 4030 0
-4228 4031 0
-4230 -4231 0
-4033 4230 0
-4034 4231 0
-4230 4033 0
-4231 4034 0
-4233 -4234 0
-4233 -4235 0
-4234 -4235 0
-4036 4233 0
-4037 4234 0
-4038 4235 0
-4233 4036 0
-4234 4037 0
-4235 4038 0
-4237 -4238 0
-4040 4237 0
-4041 4238 0
-4237 4040 0
-4238 4041 0
-4240 -4241 0
-4240 -4242 0
-4241 -4242 0
-4043 4240 0
-4044 4241 0
-4045 4242 0
-4240 4043 0
-4241 4044 0
-4242 4045 0
-4244 -4245 0
-4047 4244 0
-4048 4245 0
-4244 4047 0
-4245 4048 0
-4247 -4248 0
-4247 -4249 0
-4248 -4249 0
-4050 4247 0
-4051 4248 0
-4052 4249 0
-4247 4050 0
-4248 4051 0
-4249 4052 0
-4251 -4252 0
-4054 4251 0
-4055 4252 0
-4251 4054 0
-4252 4055 0
-4254 -4255 0
-4254 -4256 0
-4255 -4256 0
-4057 4254 0
-4058 4255 0
-4059 4256 0
-4254 4057 0
-4255 4058 0
-4256 4059 0
-4258 -4259 0
-4061 4258 0
-4062 4259 0
-4258 4061 0
-4259 4062 0
-4261 -4262 0
-4261 -4263 0
-4262 -4263 0
-4064 4261 0
-4065 4262 0
-4066 4263 0
-4261 4064 0
-4262 4065 0
-4263 4066 0
-4265 -4266 0
-4068 4265 0
-4069 4266 0
-4265 4068 0
-4266 4069 0
-4268 -4269 0
-4268 -4270 0
-4269 -4270 0
-4071 4268 0
-4072 4269 0
-4073 4270 0
-4268 4071 0
-4269 4072 0
-4270 4073 0
-4272 -4273 0
-4075 4272 0
-4076 4273 0
-4272 4075 0
-4273 4076 0
-4275 -4276 0
-4275 -4277 0
-4276 -4277 0
-4078 4275 0
-4079 4276 0
-4080 4277 0
-4275 4078 0
-4276 4079 0
-4277 4080 0
-4279 -4280 0
-4082 4279 0
-4083 4280 0
-4279 4082 0
-4280 4083 0
-4282 -4283 0
-4282 -4284 0
-4283 -4284 0
-4085 4282 0
-4086 4283 0
-4087 4284 0
-4282 4085 0
-4283 4086 0
-4284 4087 0
-4286 -4287 0
-4089 4286 0
-4090 4287 0
-4286 4089 0
-4287 4090 0
-4289 -4290 0
-4289 -4291 0
-4290 -4291 0
-4092 4289 0
-4093 4290 0
-4094 4291 0
-4289 4092 0
-4290 4093 0
-4291 4094 0
-4293 -4294 0
-4096 4293 0
-4097 4294 0
-4293 4096 0
-4294 4097 0
-4296 -4297 0
-4296 -4298 0
-4297 -4298 0
-4099 4296 0
-4100 4297 0
-4101 4298 0
-4296 4099 0
-4297 4100 0
-4298 4101 0
-4300 -4301 0
-4103 4301 0
-4104 4300 0
-4300 4104 0
-4301 4103 0
-4303 4313 4314 4315 4316 4317 0
-4313 -4314 0
-4313 -4315 0
-4313 -4316 0
-4313 -4317 0
-4314 -4315 0
-4314 -4316 0
-4314 -4317 0
-4315 -4316 0
-4315 -4317 0
-4316 -4317 0
-4303 4318 4319 4320 4321 4322 4323 4324 0
-4318 -4319 0
-4318 -4320 0
-4318 -4321 0
-4318 -4322 0
-4318 -4323 0
-4318 -4324 0
-4319 -4320 0
-4319 -4321 0
-4319 -4322 0
-4319 -4323 0
-4319 -4324 0
-4320 -4321 0
-4320 -4322 0
-4320 -4323 0
-4320 -4324 0
-4321 -4322 0
-4321 -4323 0
-4321 -4324 0
-4322 -4323 0
-4322 -4324 0
-4323 -4324 0
-4303 4325 4326 4327 4328 4329 4330 4331 4332 0
-4325 -4326 0
-4325 -4327 0
-4325 -4328 0
-4325 -4329 0
-4325 -4330 0
-4325 -4331 0
-4325 -4332 0
-4326 -4327 0
-4326 -4328 0
-4326 -4329 0
-4326 -4330 0
-4326 -4331 0
-4326 -4332 0
-4327 -4328 0
-4327 -4329 0
-4327 -4330 0
-4327 -4331 0
-4327 -4332 0
-4328 -4329 0
-4328 -4330 0
-4328 -4331 0
-4328 -4332 0
-4329 -4330 0
-4329 -4331 0
-4329 -4332 0
-4330 -4331 0
-4330 -4332 0
-4331 -4332 0
-4303 4309 0
-4303 4308 0
-4303 4311 0
-4304 4313 4314 4315 4316 4317 0
-4313 -4314 0
-4313 -4315 0
-4313 -4316 0
-4313 -4317 0
-4314 -4315 0
-4314 -4316 0
-4314 -4317 0
-4315 -4316 0
-4315 -4317 0
-4316 -4317 0
-4304 4318 4319 4320 4321 4322 4323 4324 0
-4318 -4319 0
-4318 -4320 0
-4318 -4321 0
-4318 -4322 0
-4318 -4323 0
-4318 -4324 0
-4319 -4320 0
-4319 -4321 0
-4319 -4322 0
-4319 -4323 0
-4319 -4324 0
-4320 -4321 0
-4320 -4322 0
-4320 -4323 0
-4320 -4324 0
-4321 -4322 0
-4321 -4323 0
-4321 -4324 0
-4322 -4323 0
-4322 -4324 0
-4323 -4324 0
-4304 4325 4326 4327 4328 4329 4330 4331 4332 0
-4325 -4326 0
-4325 -4327 0
-4325 -4328 0
-4325 -4329 0
-4325 -4330 0
-4325 -4331 0
-4325 -4332 0
-4326 -4327 0
-4326 -4328 0
-4326 -4329 0
-4326 -4330 0
-4326 -4331 0
-4326 -4332 0
-4327 -4328 0
-4327 -4329 0
-4327 -4330 0
-4327 -4331 0
-4327 -4332 0
-4328 -4329 0
-4328 -4330 0
-4328 -4331 0
-4328 -4332 0
-4329 -4330 0
-4329 -4331 0
-4329 -4332 0
-4330 -4331 0
-4330 -4332 0
-4331 -4332 0
-4304 4310 0
-4304 4312 0
-4304 4311 0
-4303 -4304 0
-4303 -4305 0
-4303 -4306 0
-4304 -4305 0
-4304 -4306 0
-4305 -4306 0
-4313 -4308 3989 0
-4316 -4308 3962 0
-4315 -4308 3956 0
-4314 -4308 3980 0
-4317 -4308 3964 0
-4325 -4309 4160 0
-4330 -4309 4145 0
-4326 -4309 4171 0
-4331 -4309 4147 0
-4329 -4309 4151 0
-4328 -4309 4167 0
-4327 -4309 4158 0
-4332 -4309 4142 0
-4326 -4310 3968 0
-4331 -4310 3962 0
-4332 -4310 3976 0
-4327 -4310 3956 0
-4330 -4310 3980 0
-4328 -4310 3964 0
-4329 -4310 3973 0
-4325 -4310 3989 0
-4316 -4318 -4311 4149 0
-4316 -4323 -4311 4156 0
-4316 -4319 -4311 4136 0
-4314 -4322 -4311 4137 0
-4316 -4324 -4311 4138 0
-4313 -4319 -4311 4139 0
-4315 -4319 -4311 4152 0
-4317 -4322 -4311 4168 0
-4315 -4324 -4311 4141 0
-4316 -4321 -4311 4143 0
-4315 -4322 -4311 4161 0
-4313 -4322 -4311 4153 0
-4317 -4323 -4311 4144 0
-4317 -4319 -4311 4169 0
-4313 -4323 -4311 4170 0
-4316 -4320 -4311 4162 0
-4314 -4319 -4311 4163 0
-4317 -4318 -4311 4146 0
-4317 -4320 -4311 4164 0
-4314 -4324 -4311 4155 0
-4317 -4324 -4311 4148 0
-4316 -4322 -4311 4166 0
-4313 -4324 -4311 4172 0
-4314 -4320 -4311 4173 0
-4313 -4320 -4311 4174 0
-4313 -4312 4160 0
-4316 -4312 4147 0
-4314 -4312 4145 0
-4317 -4312 4167 0
-4315 -4312 4158 0
-4303 -4315 -4331 0
-4303 -4315 -4327 0
-4303 -4315 -4328 0
-4303 -4315 -4325 0
-4303 -4315 -4330 0
-4303 -4317 -4331 0
-4303 -4317 -4328 0
-4303 -4316 -4331 0
-4303 -4314 -4331 0
-4303 -4314 -4328 0
-4303 -4314 -4325 0
-4303 -4314 -4330 0
-4303 -4313 -4331 0
-4303 -4313 -4328 0
-4303 -4313 -4325 0
-4303 -4315 -4321 0
-4303 -4315 -4320 0
-4303 -4315 -4318 0
-4303 -4315 -4323 0
-4303 -4317 -4321 0
-4303 -4314 -4321 0
-4303 -4314 -4318 0
-4303 -4314 -4323 0
-4303 -4313 -4321 0
-4303 -4313 -4318 0
-4304 -4315 -4331 0
-4304 -4315 -4327 0
-4304 -4315 -4328 0
-4304 -4315 -4325 0
-4304 -4315 -4330 0
-4304 -4317 -4331 0
-4304 -4317 -4328 0
-4304 -4316 -4331 0
-4304 -4314 -4331 0
-4304 -4314 -4328 0
-4304 -4314 -4325 0
-4304 -4314 -4330 0
-4304 -4313 -4331 0
-4304 -4313 -4328 0
-4304 -4313 -4325 0
-4304 -4315 -4321 0
-4304 -4315 -4320 0
-4304 -4315 -4318 0
-4304 -4315 -4323 0
-4304 -4317 -4321 0
-4304 -4314 -4321 0
-4304 -4314 -4318 0
-4304 -4314 -4323 0
-4304 -4313 -4321 0
-4304 -4313 -4318 0
-4130 4306 0
-4131 4304 0
-4132 4303 0
-4129 4305 0
-4303 4132 0
-4304 4131 0
-4305 4129 0
-4306 4130 0
-4333 4335 0
-4334 -4335 0
-4136 4336 -4303 -4316 4319 0
-4136 4336 -4303 4316 0
-4136 4336 -4304 -4316 4319 0
-4136 4336 -4304 4316 0
-4136 4336 4303 4304 0
4136 -4336 -4303 -4316 4326 0
4136 -4336 -4303 4316 0
4136 -4336 -4304 -4316 4326 0
4136 -4336 -4304 4316 0
4136 -4336 4303 4304 0
-4137 4337 -4303 -4314 4322 0
-4137 4337 -4303 4314 0
-4137 4337 -4304 -4314 4322 0
-4137 4337 -4304 4314 0
-4137 4337 4303 4304 0
4137 -4337 -4303 -4314 4329 0
4137 -4337 -4303 4314 0
4137 -4337 -4304 -4314 4329 0
4137 -4337 -4304 4314 0
4137 -4337 4303 4304 0
-3956 4338 -4303 4315 0
-3956 4338 -4304 4327 0
-3956 4338 4303 4304 0
3956 -4338 -4303 4320 0
3956 -4338 -4304 4315 0
3956 -4338 4303 4304 0
-4138 4339 -4303 -4316 4324 0
-4138 4339 -4303 4316 0
-4138 4339 -4304 -4316 4324 0
-4138 4339 -4304 4316 0
-4138 4339 4303 4304 0
4138 -4339 -4303 -4316 4332 0
4138 -4339 -4303 4316 0
4138 -4339 -4304 -4316 4332 0
4138 -4339 -4304 4316 0
4138 -4339 4303 4304 0
-4139 4340 -4303 -4313 4319 0
-4139 4340 -4303 4313 0
-4139 4340 -4304 -4313 4319 0
-4139 4340 -4304 4313 0
-4139 4340 4303 4304 0
4139 -4340 -4303 -4313 4326 0
4139 -4340 -4303 4313 0
4139 -4340 -4304 -4313 4326 0
4139 -4340 -4304 4313 0
4139 -4340 4303 4304 0
-4141 4341 -4303 -4315 4324 0
-4141 4341 -4303 4315 0
-4141 4341 -4304 -4315 4324 0
-4141 4341 -4304 4315 0
-4141 4341 4303 4304 0
4141 -4341 -4303 -4315 4332 0
4141 -4341 -4303 4315 0
4141 -4341 -4304 -4315 4332 0
4141 -4341 -4304 4315 0
4141 -4341 4303 4304 0
-4142 4342 -4303 4332 0
-4142 4342 4303 0
4142 -4342 -4304 4324 0
4142 -4342 4304 0
-4143 4343 -4303 -4316 4321 0
-4143 4343 -4303 4316 0
-4143 4343 -4304 -4316 4321 0
-4143 4343 -4304 4316 0
-4143 4343 4303 4304 0
4143 -4343 -4303 -4316 4328 0
4143 -4343 -4303 4316 0
4143 -4343 -4304 -4316 4328 0
4143 -4343 -4304 4316 0
4143 -4343 4303 4304 0
-3962 4344 -4303 4316 0
-3962 4344 -4304 4331 0
-3962 4344 4303 4304 0
3962 -4344 -4304 4316 0
3962 -4344 4304 0
-4144 4345 -4303 -4317 4323 0
-4144 4345 -4303 4317 0
-4144 4345 -4304 -4317 4323 0
-4144 4345 -4304 4317 0
-4144 4345 4303 4304 0
4144 -4345 -4303 -4317 4330 0
4144 -4345 -4303 4317 0
4144 -4345 -4304 -4317 4330 0
4144 -4345 -4304 4317 0
4144 -4345 4303 4304 0
-4145 4346 -4303 4330 0
-4145 4346 -4304 4314 0
-4145 4346 4303 4304 0
4145 -4346 -4303 4314 0
4145 -4346 -4304 4323 0
4145 -4346 4303 4304 0
-3964 4347 -4303 4317 0
-3964 4347 -4304 4328 0
-3964 4347 4303 4304 0
3964 -4347 -4303 4321 0
3964 -4347 -4304 4317 0
3964 -4347 4303 4304 0
-4146 4348 -4303 -4317 4318 0
-4146 4348 -4303 4317 0
-4146 4348 -4304 -4317 4318 0
-4146 4348 -4304 4317 0
-4146 4348 4303 4304 0
4146 -4348 -4303 -4317 4325 0
4146 -4348 -4303 4317 0
4146 -4348 -4304 -4317 4325 0
4146 -4348 -4304 4317 0
4146 -4348 4303 4304 0
-4147 4349 -4303 4331 0
-4147 4349 -4304 4316 0
-4147 4349 4303 4304 0
4147 -4349 -4303 4316 0
4147 -4349 4303 0
-4148 4350 -4303 -4317 4324 0
-4148 4350 -4303 4317 0
-4148 4350 -4304 -4317 4324 0
-4148 4350 -4304 4317 0
-4148 4350 4303 4304 0
4148 -4350 -4303 -4317 4332 0
4148 -4350 -4303 4317 0
4148 -4350 -4304 -4317 4332 0
4148 -4350 -4304 4317 0
4148 -4350 4303 4304 0
-4149 4351 -4303 -4316 4318 0
-4149 4351 -4303 4316 0
-4149 4351 -4304 -4316 4318 0
-4149 4351 -4304 4316 0
-4149 4351 4303 4304 0
4149 -4351 -4303 -4316 4325 0
4149 -4351 -4303 4316 0
4149 -4351 -4304 -4316 4325 0
4149 -4351 -4304 4316 0
4149 -4351 4303 4304 0
-3968 4352 -4304 4326 0
-3968 4352 4304 0
3968 -4352 -4303 4319 0
3968 -4352 4303 0
-4151 4353 -4303 4329 0
-4151 4353 4303 0
4151 -4353 -4304 4322 0
4151 -4353 4304 0
-4152 4354 -4303 -4315 4319 0
-4152 4354 -4303 4315 0
-4152 4354 -4304 -4315 4319 0
-4152 4354 -4304 4315 0
-4152 4354 4303 4304 0
4152 -4354 -4303 -4315 4326 0
4152 -4354 -4303 4315 0
4152 -4354 -4304 -4315 4326 0
4152 -4354 -4304 4315 0
4152 -4354 4303 4304 0
-4153 4355 -4303 -4313 4322 0
-4153 4355 -4303 4313 0
-4153 4355 -4304 -4313 4322 0
-4153 4355 -4304 4313 0
-4153 4355 4303 4304 0
4153 -4355 -4303 -4313 4329 0
4153 -4355 -4303 4313 0
4153 -4355 -4304 -4313 4329 0
4153 -4355 -4304 4313 0
4153 -4355 4303 4304 0
-3973 4356 -4304 4329 0
-3973 4356 4304 0
3973 -4356 -4303 4322 0
3973 -4356 4303 0
-4155 4357 -4303 -4314 4324 0
-4155 4357 -4303 4314 0
-4155 4357 -4304 -4314 4324 0
-4155 4357 -4304 4314 0
-4155 4357 4303 4304 0
4155 -4357 -4303 -4314 4332 0
4155 -4357 -4303 4314 0
4155 -4357 -4304 -4314 4332 0
4155 -4357 -4304 4314 0
4155 -4357 4303 4304 0
-4156 4358 -4303 -4316 4323 0
-4156 4358 -4303 4316 0
-4156 4358 -4304 -4316 4323 0
-4156 4358 -4304 4316 0
-4156 4358 4303 4304 0
4156 -4358 -4303 -4316 4330 0
4156 -4358 -4303 4316 0
4156 -4358 -4304 -4316 4330 0
4156 -4358 -4304 4316 0
4156 -4358 4303 4304 0
-3976 4359 -4304 4332 0
-3976 4359 4304 0
3976 -4359 -4303 4324 0
3976 -4359 4303 0
-4158 4360 -4303 4327 0
-4158 4360 -4304 4315 0
-4158 4360 4303 4304 0
4158 -4360 -4303 4315 0
4158 -4360 -4304 4320 0
4158 -4360 4303 4304 0
-4160 4361 -4303 4325 0
-4160 4361 -4304 4313 0
-4160 4361 4303 4304 0
4160 -4361 -4303 4313 0
4160 -4361 -4304 4318 0
4160 -4361 4303 4304 0
-4161 4362 -4303 -4315 4322 0
-4161 4362 -4303 4315 0
-4161 4362 -4304 -4315 4322 0
-4161 4362 -4304 4315 0
-4161 4362 4303 4304 0
4161 -4362 -4303 -4315 4329 0
4161 -4362 -4303 4315 0
4161 -4362 -4304 -4315 4329 0
4161 -4362 -4304 4315 0
4161 -4362 4303 4304 0
-3980 4363 -4303 4314 0
-3980 4363 -4304 4330 0
-3980 4363 4303 4304 0
3980 -4363 -4303 4323 0
3980 -4363 -4304 4314 0
3980 -4363 4303 4304 0
-4162 4364 -4303 -4316 4320 0
-4162 4364 -4303 4316 0
-4162 4364 -4304 -4316 4320 0
-4162 4364 -4304 4316 0
-4162 4364 4303 4304 0
4162 -4364 -4303 -4316 4327 0
4162 -4364 -4303 4316 0
4162 -4364 -4304 -4316 4327 0
4162 -4364 -4304 4316 0
4162 -4364 4303 4304 0
-4163 4365 -4303 -4314 4319 0
-4163 4365 -4303 4314 0
-4163 4365 -4304 -4314 4319 0
-4163 4365 -4304 4314 0
-4163 4365 4303 4304 0
4163 -4365 -4303 -4314 4326 0
4163 -4365 -4303 4314 0
4163 -4365 -4304 -4314 4326 0
4163 -4365 -4304 4314 0
4163 -4365 4303 4304 0
-4164 4366 -4303 -4317 4320 0
-4164 4366 -4303 4317 0
-4164 4366 -4304 -4317 4320 0
-4164 4366 -4304 4317 0
-4164 4366 4303 4304 0
4164 -4366 -4303 -4317 4327 0
4164 -4366 -4303 4317 0
4164 -4366 -4304 -4317 4327 0
4164 -4366 -4304 4317 0
4164 -4366 4303 4304 0
-4166 4367 -4303 -4316 4322 0
-4166 4367 -4303 4316 0
-4166 4367 -4304 -4316 4322 0
-4166 4367 -4304 4316 0
-4166 4367 4303 4304 0
4166 -4367 -4303 -4316 4329 0
4166 -4367 -4303 4316 0
4166 -4367 -4304 -4316 4329 0
4166 -4367 -4304 4316 0
4166 -4367 4303 4304 0
-4167 4368 -4303 4328 0
-4167 4368 -4304 4317 0
-4167 4368 4303 4304 0
4167 -4368 -4303 4317 0
4167 -4368 -4304 4321 0
4167 -4368 4303 4304 0
-4168 4369 -4303 -4317 4322 0
-4168 4369 -4303 4317 0
-4168 4369 -4304 -4317 4322 0
-4168 4369 -4304 4317 0
-4168 4369 4303 4304 0
4168 -4369 -4303 -4317 4329 0
4168 -4369 -4303 4317 0
4168 -4369 -4304 -4317 4329 0
4168 -4369 -4304 4317 0
4168 -4369 4303 4304 0
-4169 4370 -4303 -4317 4319 0
-4169 4370 -4303 4317 0
-4169 4370 -4304 -4317 4319 0
-4169 4370 -4304 4317 0
-4169 4370 4303 4304 0
4169 -4370 -4303 -4317 4326 0
4169 -4370 -4303 4317 0
4169 -4370 -4304 -4317 4326 0
4169 -4370 -4304 4317 0
4169 -4370 4303 4304 0
-4170 4371 -4303 -4313 4323 0
-4170 4371 -4303 4313 0
-4170 4371 -4304 -4313 4323 0
-4170 4371 -4304 4313 0
-4170 4371 4303 4304 0
4170 -4371 -4303 -4313 4330 0
4170 -4371 -4303 4313 0
4170 -4371 -4304 -4313 4330 0
4170 -4371 -4304 4313 0
4170 -4371 4303 4304 0
-4171 4372 -4303 4326 0
-4171 4372 4303 0
4171 -4372 -4304 4319 0
4171 -4372 4304 0
-3989 4373 -4303 4313 0
-3989 4373 -4304 4325 0
-3989 4373 4303 4304 0
3989 -4373 -4303 4318 0
3989 -4373 -4304 4313 0
3989 -4373 4303 4304 0
-4172 4374 -4303 -4313 4324 0
-4172 4374 -4303 4313 0
-4172 4374 -4304 -4313 4324 0
-4172 4374 -4304 4313 0
-4172 4374 4303 4304 0
4172 -4374 -4303 -4313 4332 0
4172 -4374 -4303 4313 0
4172 -4374 -4304 -4313 4332 0
4172 -4374 -4304 4313 0
4172 -4374 4303 4304 0
-4173 4375 -4303 -4314 4320 0
-4173 4375 -4303 4314 0
-4173 4375 -4304 -4314 4320 0
-4173 4375 -4304 4314 0
-4173 4375 4303 4304 0
4173 -4375 -4303 -4314 4327 0
4173 -4375 -4303 4314 0
4173 -4375 -4304 -4314 4327 0
4173 -4375 -4304 4314 0
4173 -4375 4303 4304 0
-4174 4376 -4303 -4313 4320 0
-4174 4376 -4303 4313 0
-4174 4376 -4304 -4313 4320 0
-4174 4376 -4304 4313 0
-4174 4376 4303 4304 0
4174 -4376 -4303 -4313 4327 0
4174 -4376 -4303 4313 0
4174 -4376 -4304 -4313 4327 0
4174 -4376 -4304 4313 0
4174 -4376 4303 4304 0
-4333 -4334 0
-4319 -4377 4352 0
-4324 -4377 4359 0
-4320 -4377 4338 0
-4323 -4377 4363 0
-4321 -4377 4347 0
-4322 -4377 4356 0
-4318 -4377 4373 0
-4325 4378 -4361 0
-4330 4378 -4346 0
-4326 4378 -4372 0
-4331 4378 -4349 0
-4329 4378 -4353 0
-4328 4378 -4368 0
-4327 4378 -4360 0
-4332 4378 -4342 0
-4318 -4379 4361 0
-4323 -4379 4346 0
-4319 -4379 4372 0
-4322 -4379 4353 0
-4321 -4379 4368 0
-4320 -4379 4360 0
-4324 -4379 4342 0
-4316 -4318 4380 -4351 0
-4316 -4323 4380 -4358 0
-4316 -4319 4380 -4336 0
-4314 -4322 4380 -4337 0
-4316 -4324 4380 -4339 0
-4313 -4319 4380 -4340 0
-4315 -4319 4380 -4354 0
-4317 -4322 4380 -4369 0
-4315 -4324 4380 -4341 0
-4316 -4321 4380 -4343 0
-4315 -4322 4380 -4362 0
-4313 -4322 4380 -4355 0
-4317 -4323 4380 -4345 0
-4317 -4319 4380 -4370 0
-4313 -4323 4380 -4371 0
-4316 -4320 4380 -4364 0
-4314 -4319 4380 -4365 0
-4317 -4318 4380 -4348 0
-4317 -4320 4380 -4366 0
-4314 -4324 4380 -4357 0
-4317 -4324 4380 -4350 0
-4316 -4322 4380 -4367 0
-4313 -4324 4380 -4374 0
-4314 -4320 4380 -4375 0
-4313 -4320 4380 -4376 0
-4313 4381 -4361 0
-4316 4381 -4349 0
-4314 4381 -4346 0
-4317 4381 -4368 0
-4315 4381 -4360 0
-4313 -4381 4361 0
-4316 -4381 4349 0
-4314 -4381 4346 0
-4317 -4381 4368 0
-4315 -4381 4360 0
-4316 -4325 -4382 4351 0
-4316 -4330 -4382 4358 0
-4316 -4326 -4382 4336 0
-4314 -4329 -4382 4337 0
-4316 -4332 -4382 4339 0
-4313 -4326 -4382 4340 0
-4315 -4326 -4382 4354 0
-4317 -4329 -4382 4369 0
-4315 -4332 -4382 4341 0
-4316 -4328 -4382 4343 0
-4315 -4329 -4382 4362 0
-4313 -4329 -4382 4355 0
-4317 -4330 -4382 4345 0
-4317 -4326 -4382 4370 0
-4313 -4330 -4382 4371 0
-4316 -4327 -4382 4364 0
-4314 -4326 -4382 4365 0
-4317 -4325 -4382 4348 0
-4317 -4327 -4382 4366 0
-4314 -4332 -4382 4357 0
-4317 -4332 -4382 4350 0
-4316 -4329 -4382 4367 0
-4313 -4332 -4382 4374 0
-4314 -4327 -4382 4375 0
-4313 -4327 -4382 4376 0
-4313 4383 -4373 0
-4316 4383 -4344 0
-4315 4383 -4338 0
-4314 4383 -4363 0
-4317 4383 -4347 0
-4313 -4383 4373 0
-4316 -4383 4344 0
-4315 -4383 4338 0
-4314 -4383 4363 0
-4317 -4383 4347 0
-4326 4384 -4352 0
-4331 4384 -4344 0
-4332 4384 -4359 0
-4327 4384 -4338 0
-4330 4384 -4363 0
-4328 4384 -4347 0
-4329 4384 -4356 0
-4325 4384 -4373 0
-4385 4325 -4318 0
-4385 -4325 4318 0
-4385 4326 -4319 0
-4385 -4326 4319 0
-4385 4327 -4320 0
-4385 -4327 4320 0
-4385 4328 -4321 0
-4385 -4328 4321 0
-4385 4329 -4322 0
-4385 -4329 4322 0
-4385 4330 -4323 0
-4385 -4330 4323 0
-4385 4332 -4324 0
-4385 -4332 4324 0
-4325 -4318 4385 0
-4326 -4319 4385 0
-4327 -4320 4385 0
-4328 -4321 4385 0
-4329 -4322 4385 0
-4330 -4323 4385 0
-4332 -4324 4385 0
-4331 -4385 0
-4386 4325 -4313 0
-4386 -4325 4313 0
-4386 4330 -4314 0
-4386 -4330 4314 0
-4386 4327 -4315 0
-4386 -4327 4315 0
-4386 4331 -4316 0
-4386 -4331 4316 0
-4386 4328 -4317 0
-4386 -4328 4317 0
-4325 -4313 4386 0
-4330 -4314 4386 0
-4327 -4315 4386 0
-4331 -4316 4386 0
-4328 -4317 4386 0
-4329 -4386 0
-4326 -4386 0
-4332 -4386 0
-4303 -4378 4386 0
-4387 4313 -4318 0
-4387 -4313 4318 0
-4387 4314 -4323 0
-4387 -4314 4323 0
-4387 4315 -4320 0
-4387 -4315 4320 0
-4387 4317 -4321 0
-4387 -4317 4321 0
-4313 -4318 4387 0
-4314 -4323 4387 0
-4315 -4320 4387 0
-4317 -4321 4387 0
-4316 -4387 0
-4322 -4387 0
-4319 -4387 0
-4324 -4387 0
-4303 -4383 4387 0
-4303 4377 0
-4303 4382 0
-4303 4381 0
-4388 4318 -4325 0
-4388 -4318 4325 0
-4388 4319 -4326 0
-4388 -4319 4326 0
-4388 4320 -4327 0
-4388 -4320 4327 0
-4388 4321 -4328 0
-4388 -4321 4328 0
-4388 4322 -4329 0
-4388 -4322 4329 0
-4388 4323 -4330 0
-4388 -4323 4330 0
-4388 4324 -4332 0
-4388 -4324 4332 0
-4318 -4325 4388 0
-4319 -4326 4388 0
-4320 -4327 4388 0
-4321 -4328 4388 0
-4322 -4329 4388 0
-4323 -4330 4388 0
-4324 -4332 4388 0
-4331 -4388 0
-4303 -4380 4388 0
-4304 -4381 4387 0
-4304 -4384 4386 0
-4304 4379 0
-4304 4383 0
-4304 4382 0
-4304 -4380 4388 0
-4130 4333 0
-4131 4334 0
-4132 4334 0
-4129 4333 0
-4334 4131 4132 0
-4333 4130 4129 0
-4134 151 -4335 0
4134 -151 -4335 0
-4135 152 -4335 0
4135 -152 -4335 0
-4336 154 -4335 0
4336 -154 -4335 0
-4337 155 -4335 0
4337 -155 -4335 0
-4338 385 -4335 0
4338 -385 -4335 0
-4339 156 -4335 0
4339 -156 -4335 0
-4340 158 -4335 0
4340 -158 -4335 0
-4140 159 -4335 0
4140 -159 -4335 0
-4341 160 -4335 0
4341 -160 -4335 0
-4342 602 -4335 0
4342 -602 -4335 0
-4343 10 -4335 0
4343 -10 -4335 0
-4344 162 -4335 0
4344 -162 -4335 0
-4345 163 -4335 0
4345 -163 -4335 0
-4346 270 -4335 0
4346 -270 -4335 0
-4347 386 -4335 0
4347 -386 -4335 0
-4348 11 -4335 0
4348 -11 -4335 0
-4349 271 -4335 0
4349 -271 -4335 0
-4350 167 -4335 0
4350 -167 -4335 0
-4351 170 -4335 0
4351 -170 -4335 0
-4352 171 -4335 0
4352 -171 -4335 0
-4150 172 -4335 0
4150 -172 -4335 0
-4353 273 -4335 0
4353 -273 -4335 0
-4354 12 -4335 0
4354 -12 -4335 0
-4355 174 -4335 0
4355 -174 -4335 0
-4154 274 -4335 0
4154 -274 -4335 0
-4356 387 -4335 0
4356 -387 -4335 0
-4357 176 -4335 0
4357 -176 -4335 0
-4358 153 -4335 0
4358 -153 -4335 0
-4359 388 -4335 0
4359 -388 -4335 0
-4157 157 -4335 0
4157 -157 -4335 0
-4360 267 -4335 0
4360 -267 -4335 0
-4159 268 -4335 0
4159 -268 -4335 0
-4361 269 -4335 0
4361 -269 -4335 0
-4362 161 -4335 0
4362 -161 -4335 0
-4363 389 -4335 0
4363 -389 -4335 0
-4364 164 -4335 0
4364 -164 -4335 0
-4365 165 -4335 0
4365 -165 -4335 0
-4366 166 -4335 0
4366 -166 -4335 0
-4165 168 -4335 0
4165 -168 -4335 0
-4367 169 -4335 0
4367 -169 -4335 0
-4368 272 -4335 0
4368 -272 -4335 0
-4369 173 -4335 0
4369 -173 -4335 0
-4370 175 -4335 0
4370 -175 -4335 0
-4371 13 -4335 0
4371 -13 -4335 0
-4372 603 -4335 0
4372 -603 -4335 0
-4373 390 -4335 0
4373 -390 -4335 0
-4374 177 -4335 0
4374 -177 -4335 0
-4375 14 -4335 0
4375 -14 -4335 0
-4376 178 -4335 0
4376 -178 -4335 0
-4202 4389 0
-4389 4202 0
a 4335 0
